dates = {'2022-01-04','2022-01-05','2022-01-06','2022-01-07','2022-01-08','2022-01-09','2022-01-10'};

daysOfWeek = [Tuesday,Wednesday,Thursday,Friday,Saturday,Sunday,Monday];

% For this week, how many people will be here.
numPeople = [164,164,164,164,165,165,154];

% Physical workers need 50 to 100 % more nutrients per day.
numPhysicalWorkers = [58.5,58.5,58.5,58.5,58.5,58.5,58.5];

% Males need +25% more nutrients per day.
numMen = [137,137,137,137,138,138,138];

% Num people who do not eat categories. contains = {none, meat, milk, gluten, egg, nut, seed, sugars}
numRefusals = [| 0,0,6,1,7,0,0,1 | 0,0,6,1,7,0,0,1 | 0,0,6,1,7,0,0,1 | 0,0,6,1,7,0,0,1 | 0,5,0,0,2,0,12,12 | 0,5,0,0,2,0,12,12 | 0,0,0,0,0,21,0,9 |];

